c --- [ banner ] -------------------------------------------------------------
c 
c CaDiCaL Radically Simplified CDCL SAT Solver
c Copyright (c) 2016-2021 A. Biere, M. Fleury, N. Froleyks
c 
c Version 1.5.2 a5f15211db36c3956764e18194dd5bd63bf3b5e6
c g++ (GCC) 9.3.0 -Wall -Wextra -O3 -DNDEBUG
c Fri Oct 21 01:27:37 EDT 2022 Linux gra-login3 3.10.0-1160.66.1.el7.x86_64 x86_64
c 
c --- [ limit ] --------------------------------------------------------------
c 
c setting conflict limit to 200000 conflicts (due to '200000')
c 
c --- [ parsing input ] ------------------------------------------------------
c 
c reading DIMACS file from '33.cubes7431.adj'
c opening file to read '33.cubes7431.adj'
c found 'p cnf 6160 1595478' header
c parsed 1595478 clauses in 17.31 seconds process time
c closing file '33.cubes7431.adj'
c after reading 1457566794 bytes 1390.0 MB
c 
c --- [ options ] ------------------------------------------------------------
c 
c all options are set to their default value
c 
c --- [ solving ] ------------------------------------------------------------
c 
c time measured in process time since initialization
c 
c  seconds    reductions  redundant   irredundant
c          MB     restarts       trail       variables
c            level   conflicts       glue         remaining
c 
c * 17.31 1381  0 0   0    0    0  0% 0 1595422 2371 38%
c { 17.57 1397  0 0   0    0    0  0% 0 1595422 2371 38%
c i 17.57 1397  1 0   0    1    0 12% 0 1595422 2358 38%
c i 20.38 1487 707 0   5   37   31 34% 15 1595422 2357 38%
c i 21.10 1498 321 0  11   83   60 28% 14 1595422 2345 38%
c i 21.11 1498 317 0  11   84   60 28% 14 1595422 2336 38%
c i 21.67 1502 298 0  13   95   69 28% 22 1595422 2335 38%
c i 21.90 1504 268 0  16  109   80 29% 24 1595422 2324 38%
c i 21.95 1504 261 0  17  113   83 29% 24 1595422 2313 38%
c i 22.11 1505 253 0  19  119   84 28% 26 1595422 2309 37%
c i 22.16 1506 248 0  20  123   87 28% 26 1595422 2308 37%
c i 22.56 1508 239 0  24  138   99 28% 29 1595422 2307 37%
c i 23.02 1508 215 0  31  164  110 26% 31 1595422 2306 37%
c i 23.28 1509 200 0  34  185  124 26% 29 1595422 2304 37%
c i 23.60 1511 196 0  38  211  142 26% 33 1595422 2302 37%
c i 23.63 1511 195 0  39  218  144 26% 33 1595422 2298 37%
c i 23.97 1514 193 0  45  237  158 26% 39 1595422 2297 37%
c i 24.14 1514 195 0  47  248  168 26% 43 1595422 2296 37%
c i 24.41 1515 176 0  58  299  193 26% 43 1595422 2295 37%
c - 28.00 1492 176 1  58  300  193 26% 43 279052 2295 37%
c 
c  seconds     reductions  redundant   irredundant
c          MB      restarts       trail       variables
c             level   conflicts       glue         remaining
c 
c i 28.18 1493 174 1  58  307  198 26% 43 279052 2294 37%
c i 28.32 1493 169 1  61  326  211 26% 45 279052 2293 37%
c i 28.38 1370 167 1  63  333  213 26% 45 279052 2292 37%
c i 28.83 1371 167 1  67  389  256 26% 45 279052 2291 37%
c i 29.45 1371 152 1  77  465  316 26% 45 279052 2290 37%
c i 29.84 1371 136 1  79  609  429 27% 44 279052 2289 37%
c i 29.87 1371 134 1  79  621  438 27% 43 279052 2288 37%
c i 29.92 1371 133 1  79  626  442 27% 43 279052 2287 37%
c i 29.94 1371 132 1  79  634  447 27% 43 279052 2286 37%
c i 30.01 1371 130 1  79  649  459 27% 43 279052 2285 37%
c i 30.09 1371 128 1  79  673  476 27% 43 279052 2284 37%
c i 30.09 1371 128 1  79  674  476 27% 43 279052 2283 37%
c i 30.09 1371 127 1  79  675  476 27% 42 279052 2282 37%
c i 30.11 1371 126 1  79  686  486 27% 42 279052 2281 37%
c i 30.13 1371 124 1  79  698  494 27% 42 279052 2280 37%
c i 30.15 1371 122 1  79  715  508 27% 42 279052 2279 37%
c i 30.18 1371 121 1  79  733  524 27% 41 279052 2278 37%
c i 30.19 1371 120 1  79  737  527 27% 41 279052 2277 37%
c i 30.27 1371 119 1  79  753  533 27% 41 279052 2276 37%
c i 30.32 1371 117 1  79  766  541 27% 41 279052 2275 37%
c 
c  seconds     reductions  redundant   irredundant
c          MB      restarts       trail       variables
c             level   conflicts       glue         remaining
c 
c i 30.44 1371 113 1  79  814  580 27% 40 279052 2274 37%
c i 30.66 1371 106 1  82  925  670 27% 39 279052 2272 37%
c i 30.67 1371 106 1  82  927  671 27% 39 279052 2271 37%
c i 30.78 1371 108 1  87  961  701 28% 40 279052 2270 37%
c } 31.18 1371 109 1  95 1004  735 28% 42 279052 2270 37%
c [ 31.18 1371  0 1  95 1004  735  0% 0 279052 2270 37%
c O 31.18 1371  2 1  95 1005  736 14% 2 279052 2270 37%
c - 31.90 1496 21 2  95 1167  781 35% 18 278977 2270 37%
c i 32.07 1496 23 2  95 1318  898 34% 19 278977 2269 37%
c i 32.08 1496 23 2  95 1337  906 34% 18 278977 2268 37%
c i 32.13 1496 22 2  95 1400  955 34% 18 278977 2267 37%
c i 32.13 1496 22 2  95 1401  955 34% 18 278977 2266 37%
c i 32.13 1496 22 2  95 1405  957 34% 18 278977 2265 37%
c i 32.13 1496 22 2  95 1406  957 34% 18 278977 2264 37%
c i 32.15 1496 22 2  95 1434  977 34% 18 278977 2263 37%
c i 32.19 1496 21 2  95 1516 1023 33% 17 278977 2262 37%
c i 32.21 1496 21 2  95 1519 1024 33% 17 278977 2261 37%
c i 32.24 1496 21 2  95 1542 1039 33% 17 278977 2260 37%
c i 32.43 1496 24 2  95 1882 1244 33% 20 278977 2259 37%
c i 32.54 1496 23 2  96 2185 1406 32% 20 278977 2258 37%
c 
c  seconds    reductions  redundant   irredundant
c          MB     restarts       trail       variables
c            level   conflicts       glue         remaining
c 
c - 33.03 1493 25 3  96 2468 1208 32% 21 278941 2258 37%
c ] 33.59 1493 24 3  96 3005 1504 53% 20 278941 2258 37%
c { 33.60 1493 109 3  96 3005 1504 75% 42 278941 2258 37%
c F 33.60 1493 109 3  97 3006 1505 75% 41 278941 2258 37%
c i 33.82 1493 106 3 100 3031 1520 74% 41 278941 2257 37%
c i 33.87 1493 105 3 100 3040 1528 74% 40 278941 2256 37%
c i 33.94 1493 104 3 100 3057 1542 73% 40 278941 2255 37%
c i 34.00 1493 99 3 100 3126 1599 72% 39 278941 2254 37%
c i 34.10 1493 99 3 100 3142 1614 71% 39 278941 2253 37%
c i 34.48 1493 99 3 109 3281 1724 68% 39 278941 2252 37%
c i 34.60 1493 93 3 111 3397 1818 66% 37 278941 2251 37%
c i 34.60 1493 93 3 111 3399 1819 66% 37 278941 2250 37%
c i 34.66 1493 90 3 111 3460 1869 65% 36 278941 2249 37%
c i 34.68 1493 89 3 111 3476 1879 65% 36 278941 2248 36%
c i 34.68 1493 89 3 111 3482 1882 65% 36 278941 2247 36%
c i 34.92 1493 74 3 111 3930 2253 61% 32 278941 2246 36%
c i 35.26 1493 71 3 128 4091 2366 60% 32 278941 2245 36%
c i 35.48 1493 71 3 128 4146 2404 60% 32 278941 2244 36%
c - 35.89 1490 69 4 128 4202 1822 60% 32 278899 2244 36%
c i 36.11 1490 67 4 128 4313 1905 59% 31 278899 2243 36%
c 
c  seconds    reductions  redundant   irredundant
c          MB     restarts       trail       variables
c            level   conflicts       glue         remaining
c 
c i 36.53 1490 62 4 128 4676 2163 58% 30 278899 2242 36%
c d 37.16 1490 58 4 128 5000 2425 57% 29 263655 2230 36%
c 2 37.22 1490 58 4 128 5000 3394 57% 29 263655 2228 36%
c p 44.30 1490 58 4 128 5000 6241 57% 29 263655 2152 35%
c d 44.66 1490 58 4 128 5000 6185 57% 29 204132 2151 35%
c # 46.20 1490 51 4 129 6009 6904 54% 27 204132 2151 35%
c - 46.69 1373 48 5 129 6370 2676 54% 27 204132 2151 35%
c } 47.08 1373 45 5 129 7008 3190 53% 26 204132 2151 35%
c [ 47.08 1373 24 5 129 7008 3190 53% 20 204132 2151 35%
c - 47.90 1373 25 6 130 8727 3103 50% 22 204132 2151 35%
c I 48.55 1373 25 6 131 10011 4072 49% 22 204132 2151 35%
c - 49.91 1373 30 7 133 11477 3431 50% 25 204132 2151 35%
c ] 51.38 1372 30 7 134 14207 5378 51% 26 204132 2151 35%
c 1 51.38 1372 30 7 134 14207 5378 51% 26 204132 2151 35%
c 
c --- [ writing output ] -----------------------------------------------------
c 
c writing simplified CNF to DIMACS file 'simp/33.cubes7431.adj.simp1'
c * 51.38 1372 30 7 134 14207 5378 51% 26 204132 2151 35%
c opening file to write 'simp/33.cubes7431.adj.simp1'
c writing 'p cnf 6160 204132' header
c closing file 'simp/33.cubes7431.adj.simp1'
c after writing 97882063 bytes 93.3 MB
c wrote 204132 clauses in 0.60 seconds process time
c 
c --- [ writing extension ] --------------------------------------------------
c 
c writing extension stack to 'simp/33.cubes7431.adj.ext1'
c opening file to write 'simp/33.cubes7431.adj.ext1'
c closing file 'simp/33.cubes7431.adj.ext1'
c after writing 13117 bytes 0.0 MB
c wrote 878 witnesses in 0.00 seconds process time
c 
c --- [ result ] -------------------------------------------------------------
c 
s SATISFIABLE
c 
c --- [ run-time profiling ] -------------------------------------------------
c 
c process time taken by individual solving procedures
c (percentage relative to process time for solving)
c 
c        26.12   76.65% search
c        19.14   56.16% unstable
c        17.31   50.79% parse
c         7.96   23.35% simplify
c         7.08   20.77% probe
c         6.72   19.72% stable
c         0.26    0.77% lucky
c         0.04    0.12% ternary
c   =================================
c        34.08   65.55% solve
c 
c last line shows process time for solving
c (percentage relative to total process time)
c 
c --- [ statistics ] ---------------------------------------------------------
c 
c chronological:              2426        17.08 %  of conflicts
c conflicts:                 14207       416.90    per second
c decisions:                 35322      1036.51    per second
c fixed:                       852        13.83 %  of all variables
c learned:                   13889        97.76 %  per conflict
c learned_lits:            2829905       100.00 %  learned literals
c minimized:                     0         0.00 %  learned literals
c shrunken:                1685535        59.56 %  learned literals
c minishrunken:             241132         8.52 %  learned literals
c propagations:            1884331         0.06 M  per second
c reduced:                    5093        35.85 %  per conflict
c rephased:                      4      3551.75    interval
c restarts:                    134       106.02    interval
c stabilizing:                   2        64.76 %  of conflicts
c substituted:                  13         0.21 %  of all variables
c subsumed:                   3403         0.10 %  of all clauses
c ternary:                     969         0.53 %  of resolved
c weakened:                     26         2.00    average size
c 
c seconds are measured in process time for solving
c 
c --- [ resources ] ----------------------------------------------------------
c 
c total process time since initialization:        51.99    seconds
c total real time since initialization:           52.98    seconds
c maximum resident set size of process:         1617.64    MB
c 
c --- [ shutting down ] ------------------------------------------------------
c 
c exit 10
WARNING! DIMACS header mismatch: wrong number of variables.
============================[ Problem Statistics ]=============================
|                                                                             |
|  Number of variables:          6120                                         |
|  Number of clauses:          204136                                         |
|  Parse time:                   1.40 s                                       |
|  Simplification time:          0.07 s                                       |
|                                                                             |
============================[ Search Statistics ]====================================================
| Conflicts |          ORIGINAL         |          LEARNT          | Num Sols |      SUBGRAPHS      |
|           |    Vars  Clauses Literals |    Limit  Clauses Lit/Cl |          | Canonical Noncanon. |
=====================================================================================================
|       126 |    6026   204162 21006115 |     2000      126     30 |        0 |        30        26 |
|       283 |    6026   204169 21006582 |     2000      283     76 |        0 |        32        33 |
|       508 |    6026   204169 21006582 |     2000      508     96 |        0 |        32        33 |
|       854 |    6026   204178 21006749 |     2000      854    103 |        0 |        40        42 |
|      1362 |    6026   204180 21006842 |     2000     1362    102 |        0 |        54        44 |
|      2186 |    6026   204245 21007421 |     3603     1189     66 |        0 |        70       109 |
|      4098 |    6026   205018 21020899 |     3603     3101     64 |        0 |       229       882 |
|      5931 |    6026   205143 21022784 |     5002     3133     57 |        0 |       255      1007 |
|      8622 |    6026   205272 21024637 |     6305     3327     48 |        0 |       294      1136 |
|     12514 |    6026   205320 21026030 |     7554     4068     49 |        0 |       312      1184 |
|     18398 |    6026   205438 21027567 |     8779     6177     63 |        0 |       353      1302 |
|     27314 |    6026   205705 21031642 |    11201     5715     45 |        0 |       394      1569 |
|     40806 |    6026   206223 21038719 |    13610     7416     45 |        0 |       446      2087 |
|     61860 |    6026   207816 21059011 |    16008    14268     59 |        0 |       633      3680 |
|     98304 |    6026   215068 21168591 |    20810    15114     30 |        0 |       981     10932 |
|    143032 |    6026   216007 21183254 |    25613    14645     35 |        0 |      1107     11871 |
|    213877 |    6026   221168 21256360 |    31618    15495     23 |        0 |      1664     17032 |
|    323351 |    6009   215433 21174122 |    35544    17895     53 |        0 |      3621     27980 |
|    473620 |    6009   217913 21209556 |    47192    23012     36 |        0 |      3783     30460 |
=====================================================================================================
Number of solutions   : 0
Canonical subgraphs   : 4011           (19 /sec)
          order  3    : 1              (166667 /sec)
          order  4    : 1              (333333 /sec)
          order  5    : 1              (125000 /sec)
          order  6    : 1              (29412 /sec)
          order  7    : 1              (4808 /sec)
          order  8    : 2              (873 /sec)
          order  9    : 4              (359 /sec)
          order 10    : 13             (179 /sec)
          order 11    : 40             (125 /sec)
          order 12    : 48             (94 /sec)
          order 13    : 70             (65 /sec)
          order 14    : 68             (44 /sec)
          order 15    : 889            (32 /sec)
          order 16    : 1329           (21 /sec)
          order 17    : 1307           (14 /sec)
          order 18    : 202            (10 /sec)
          order 19    : 27             (8 /sec)
          order 20    : 7              (7 /sec)
          order 21    : 0              (-nan /sec)
          order 22    : 0              (-nan /sec)
Noncanonical subgraphs: 33831          (165 /sec)
          order  3    : 0              (-nan /sec)
          order  4    : 0              (-nan /sec)
          order  5    : 0              (-nan /sec)
          order  6    : 0              (-nan /sec)
          order  7    : 0              (-nan /sec)
          order  8    : 0              (-nan /sec)
          order  9    : 0              (-nan /sec)
          order 10    : 0              (-nan /sec)
          order 11    : 0              (-nan /sec)
          order 12    : 0              (-nan /sec)
          order 13    : 303            (13681 /sec)
          order 14    : 274            (8084 /sec)
          order 15    : 2433           (1373 /sec)
          order 16    : 23609          (178 /sec)
          order 17    : 3131           (126 /sec)
          order 18    : 3854           (97 /sec)
          order 19    : 227            (35 /sec)
          order 20    : 0              (-nan /sec)
          order 21    : 0              (-nan /sec)
Canonicity checking   : 211.222 s
Noncanonicity checking: 205.428 s
Total canonicity time : 416.651 s
database reductions   : 38
restarts              : 1023
conflicts             : 499312         (859 /sec)
decisions             : 680922         (0.00 % random) (1172 /sec)
propagations          : 49670756       (85466 /sec)
conflict literals     : 44606090       (58.24 % deleted)
actual reward         : 0.121705
Memory used           : 281.00 MB
CPU time              : 581.174 s

UNSATISFIABLE
